sat
(:added-eqs                       176
 :arith-eq-adapter                83
 :arith-bound-propagations-lp     7
 :arith-conflicts                 8
 :arith-diseq                     26
 :arith-fixed-eqs                 3
 :arith-grobner-calls             6
 :arith-horner-calls              1
 :arith-horner-cross-nested-forms 5
 :arith-lower                     90
 :arith-make-feasible             28
 :arith-max-columns               356
 :arith-max-rows                  101
 :arith-nla-add-bounds            2
 :arith-nla-lemmas                5
 :arith-nla-propagate-bounds      2
 :arith-nla-propagate-eq          52
 :arith-nra-calls                 2
 :arith-offset-eqs                4
 :arith-upper                     152
 :binary-propagations             353
 :conflicts                       3
 :decisions                       422
 :del-clause                      4
 :elim-unconstrained              82
 :final-checks                    9
 :max-memory                      278.49
 :memory                          163.78
 :mk-bool-var                     628
 :mk-clause                       133
 :mk-clause-binary                15351
 :nlsat-conflicts                 66
 :nlsat-decisions                 1
 :nlsat-propagations              3787
 :nlsat-restarts                  2
 :nlsat-stages                    3283
 :num-allocs                      1241823319
 :num-checks                      1
 :propagations                    377
 :rlimit-count                    2521160
 :sat-backjumps                   501
 :sat-conflicts                   501
 :sat-decisions                   4149
 :sat-del-clause                  113922
 :sat-elim-bool-vars-res          20762
 :sat-elim-clauses                649
 :sat-elim-literals               2208
 :sat-minimized-lits              1371
 :sat-mk-clause-2ary              65460
 :sat-mk-clause-3ary              35869
 :sat-mk-clause-nary              176874
 :sat-mk-var                      42741
 :sat-probing-assigned            138
 :sat-propagations-2ary           709294
 :sat-propagations-nary           839574
 :sat-restarts                    33
 :sat-scc-elim-binary             434
 :sat-scc-elim-vars               83
 :sat-subs-resolution             1813
 :sat-subs-resolution-dyn         72
 :sat-subsumed                    26395
 :sat-units                       166
 :time                            1.65
 :total-time                      1.67)
